Route #1: 9 62 61 30 57 3
Route #2: 60 64 6 34 40 44 42
Route #3: 53 39 36 1 49 35 14
Route #4: 50 20 19 11 4 46
Route #5: 7 8 23 37 65 32
Route #6: 51 59 24 29 38 17
Route #7: 10 27 43 16 41 66 2 33
Route #8: 47 26 18 31 45 52 22 54 55
Route #9: 12 58 13 28 5
Route #10: 15 56 21 25 48 63
Cost 1103